p tw 253 634
1 28
1 37
1 85
2 106
2 107
2 185
3 109
3 110
3 187
4 106
4 121
4 185
5 109
5 122
5 187
6 106
6 131
6 185
7 109
7 132
7 187
8 9
8 11
8 56
8 57
8 58
9 10
9 11
9 51
9 59
9 80
9 142
9 143
10 51
10 144
11 15
11 39
11 40
11 42
11 43
11 44
11 45
11 46
11 47
11 48
11 49
11 51
11 59
11 60
11 63
11 66
11 80
11 81
11 90
11 91
11 92
11 94
11 95
11 96
11 97
11 98
11 101
11 102
11 104
11 114
11 115
11 117
11 118
11 120
11 123
11 124
11 126
11 127
11 128
11 130
11 134
11 135
11 169
11 170
11 171
11 172
11 173
11 175
11 176
11 177
11 178
11 204
11 205
11 206
11 208
11 209
11 213
11 214
11 215
11 217
11 218
11 231
11 232
11 233
11 234
11 235
11 236
11 237
11 238
11 239
11 240
11 241
11 242
11 243
11 244
11 245
11 246
11 247
11 248
11 249
11 250
11 251
11 252
11 253
12 33
12 38
12 89
13 112
13 113
13 189
14 112
14 133
14 189
15 49
15 50
16 17
16 18
16 19
16 20
16 25
16 26
16 31
16 32
16 53
16 54
16 62
16 65
16 105
16 108
16 111
17 21
17 22
18 19
18 20
18 21
18 26
19 20
19 26
19 27
20 21
20 65
20 66
21 22
21 105
21 106
22 23
22 24
22 60
22 61
22 76
23 24
23 78
23 81
24 36
25 27
25 28
26 27
26 62
26 63
27 28
27 108
27 109
28 29
28 30
28 37
28 60
28 82
29 30
29 72
29 81
30 35
31 32
31 33
32 33
32 111
32 112
33 34
33 35
33 38
33 60
33 86
34 35
34 68
34 81
36 41
36 91
37 38
39 40
39 90
40 94
41 48
41 55
41 56
41 60
41 63
41 64
41 66
41 67
41 68
41 70
41 71
41 72
41 77
41 78
41 140
42 43
42 101
43 104
44 45
44 117
45 120
46 47
46 126
47 130
48 49
49 50
50 51
50 52
51 52
51 93
51 99
51 103
51 116
51 119
51 125
51 129
51 136
51 137
51 138
51 144
51 145
51 147
51 150
51 165
51 166
51 167
51 168
51 174
51 179
51 180
51 181
51 182
51 183
51 190
51 191
51 192
51 197
51 198
51 203
51 207
51 210
51 211
51 212
51 216
51 219
51 223
51 224
51 225
51 226
51 227
51 228
51 229
51 230
52 138
53 54
53 55
54 55
55 56
55 60
55 139
56 57
57 58
57 59
58 59
59 60
59 143
60 61
60 63
60 66
60 69
60 73
60 74
60 78
60 82
60 83
60 86
60 87
60 88
60 106
60 109
60 112
60 139
60 140
60 146
60 149
60 184
60 186
60 188
60 193
60 195
60 196
61 75
61 76
62 63
63 64
63 66
63 67
63 71
63 77
63 102
63 146
64 68
64 69
65 66
66 67
66 70
66 71
66 77
66 118
66 149
67 68
68 69
68 72
68 79
69 73
69 74
69 75
69 83
69 87
70 72
70 73
71 72
72 73
72 79
73 74
73 83
73 84
73 87
74 75
74 149
74 150
75 76
75 184
75 185
76 145
77 78
78 79
78 127
78 193
78 195
80 81
82 84
82 85
83 84
83 146
83 147
84 85
84 186
84 187
85 145
86 88
86 89
87 88
88 89
88 188
88 189
89 145
89 162
90 92
90 93
91 92
91 172
92 93
93 99
93 165
94 98
94 99
95 96
95 97
95 169
95 171
96 97
96 175
96 205
96 209
97 98
98 99
99 168
100 137
100 141
100 142
100 145
100 147
100 148
100 150
100 151
100 152
100 154
100 155
100 156
100 159
100 160
100 166
100 200
101 102
101 103
102 103
103 116
103 182
104 115
104 116
105 106
106 107
106 121
106 131
106 184
107 114
108 109
109 110
109 122
109 132
109 186
110 113
111 112
112 113
112 133
112 188
113 122
114 115
115 116
117 118
117 119
118 119
119 125
119 190
120 124
120 125
121 123
123 124
124 125
126 128
126 129
127 128
127 193
127 194
127 195
128 129
129 136
129 192
130 135
130 136
131 134
132 133
134 135
135 136
137 138
139 140
139 141
140 141
141 142
141 145
141 199
143 144
144 145
145 147
145 150
145 153
145 157
145 158
145 160
145 161
145 162
145 163
145 164
145 185
145 187
145 189
145 199
145 200
145 201
145 202
145 220
145 221
145 222
146 147
147 148
147 150
147 151
147 155
147 159
147 183
147 201
148 152
148 153
149 150
150 151
150 154
150 155
150 159
150 191
150 202
151 152
152 153
152 156
153 157
153 158
153 161
153 163
154 156
154 157
155 156
156 157
157 158
157 161
157 163
158 202
159 160
160 197
160 221
160 222
161 201
162 164
163 164
164 220
165 167
166 167
166 211
168 181
169 173
169 174
170 171
170 177
170 204
171 208
172 173
173 174
174 179
174 180
174 203
174 210
175 178
175 179
176 213
176 214
177 217
178 179
179 180
179 224
179 227
180 181
182 183
184 185
186 187
188 189
189 220
190 191
192 198
193 194
194 196
194 197
195 196
196 197
197 198
197 221
197 222
199 200
203 212
204 206
204 207
205 206
206 207
207 210
207 219
207 223
208 209
208 210
209 210
210 226
211 212
213 215
213 216
214 218
215 216
216 228
217 218
217 219
218 219
219 229
223 225
224 225
226 227
228 230
229 230
231 232
231 236
232 239
233 234
233 235
234 235
236 238
237 238
237 247
239 243
240 241
240 242
240 250
240 252
241 242
241 244
241 246
242 243
244 245
244 249
245 251
246 248
247 248
249 250
251 253
252 253
